5
0.0 3.5 8.0 3.5 4.0
3.5 0.0 8.0 6.5 5.0
8.0 8.0 0.0 6.0 7.0
3.5 6.5 6.0 0.0 3.0
4.0 5.0 7.0 3.0 0.0
0.0 3.5 5.5 4.0 4.0
3.5 0.0 4.5 5.5 4.0
5.5 4.5 0.0 3.0 6.5
4.0 5.5 3.0 0.0 5.0
4.0 4.0 6.5 5.0 0.0
